c Generated map
c Size: 12 * 12, weights in range: 1 to 10, walls: False, with ratio 0.0
c dim 4 of 5
c
p sp 144 264
c graph contains 144 nodes and 264 arcs
c
a 1 13 4
a 13 1 4
a 1 2 7
a 2 1 7
a 2 14 9
a 14 2 9
a 2 3 8
a 3 2 8
a 3 15 5
a 15 3 5
a 3 4 9
a 4 3 9
a 4 16 5
a 16 4 5
a 4 5 8
a 5 4 8
a 5 17 8
a 17 5 8
a 5 6 6
a 6 5 6
a 6 18 3
a 18 6 3
a 6 7 2
a 7 6 2
a 7 19 7
a 19 7 7
a 7 8 2
a 8 7 2
a 8 20 5
a 20 8 5
a 8 9 2
a 9 8 2
a 9 21 7
a 21 9 7
a 9 10 9
a 10 9 9
a 10 22 6
a 22 10 6
a 10 11 8
a 11 10 8
a 11 23 7
a 23 11 7
a 11 12 6
a 12 11 6
a 12 24 3
a 24 12 3
a 13 25 5
a 25 13 5
a 13 14 4
a 14 13 4
a 14 26 2
a 26 14 2
a 14 15 4
a 15 14 4
a 15 27 6
a 27 15 6
a 15 16 8
a 16 15 8
a 16 28 8
a 28 16 8
a 16 17 6
a 17 16 6
a 17 29 6
a 29 17 6
a 17 18 1
a 18 17 1
a 18 30 5
a 30 18 5
a 18 19 1
a 19 18 1
a 19 31 9
a 31 19 9
a 19 20 7
a 20 19 7
a 20 32 2
a 32 20 2
a 20 21 9
a 21 20 9
a 21 33 1
a 33 21 1
a 21 22 10
a 22 21 10
a 22 34 6
a 34 22 6
a 22 23 6
a 23 22 6
a 23 35 8
a 35 23 8
a 23 24 8
a 24 23 8
a 24 36 6
a 36 24 6
a 25 37 6
a 37 25 6
a 25 26 9
a 26 25 9
a 26 38 1
a 38 26 1
a 26 27 4
a 27 26 4
a 27 39 2
a 39 27 2
a 27 28 10
a 28 27 10
a 28 40 5
a 40 28 5
a 28 29 1
a 29 28 1
a 29 41 9
a 41 29 9
a 29 30 4
a 30 29 4
a 30 42 5
a 42 30 5
a 30 31 3
a 31 30 3
a 31 43 1
a 43 31 1
a 31 32 4
a 32 31 4
a 32 44 9
a 44 32 9
a 32 33 8
a 33 32 8
a 33 45 3
a 45 33 3
a 33 34 10
a 34 33 10
a 34 46 10
a 46 34 10
a 34 35 6
a 35 34 6
a 35 47 3
a 47 35 3
a 35 36 9
a 36 35 9
a 36 48 9
a 48 36 9
a 37 49 9
a 49 37 9
a 37 38 3
a 38 37 3
a 38 50 5
a 50 38 5
a 38 39 9
a 39 38 9
a 39 51 9
a 51 39 9
a 39 40 7
a 40 39 7
a 40 52 8
a 52 40 8
a 40 41 3
a 41 40 3
a 41 53 5
a 53 41 5
a 41 42 6
a 42 41 6
a 42 54 8
a 54 42 8
a 42 43 3
a 43 42 3
a 43 55 9
a 55 43 9
a 43 44 1
a 44 43 1
a 44 56 3
a 56 44 3
a 44 45 9
a 45 44 9
a 45 57 7
a 57 45 7
a 45 46 6
a 46 45 6
a 46 58 9
a 58 46 9
a 46 47 5
a 47 46 5
a 47 59 7
a 59 47 7
a 47 48 7
a 48 47 7
a 48 60 7
a 60 48 7
a 49 61 6
a 61 49 6
a 49 50 6
a 50 49 6
a 50 62 1
a 62 50 1
a 50 51 4
a 51 50 4
a 51 63 5
a 63 51 5
a 51 52 1
a 52 51 1
a 52 64 10
a 64 52 10
a 52 53 8
a 53 52 8
a 53 65 8
a 65 53 8
a 53 54 9
a 54 53 9
a 54 66 10
a 66 54 10
a 54 55 1
a 55 54 1
a 55 67 9
a 67 55 9
a 55 56 3
a 56 55 3
a 56 68 9
a 68 56 9
a 56 57 2
a 57 56 2
a 57 69 5
a 69 57 5
a 57 58 10
a 58 57 10
a 58 70 7
a 70 58 7
a 58 59 8
a 59 58 8
a 59 71 3
a 71 59 3
a 59 60 10
a 60 59 10
a 60 72 4
a 72 60 4
a 61 73 8
a 73 61 8
a 61 62 4
a 62 61 4
a 62 74 5
a 74 62 5
a 62 63 9
a 63 62 9
a 63 75 8
a 75 63 8
a 63 64 3
a 64 63 3
a 64 76 7
a 76 64 7
a 64 65 2
a 65 64 2
a 65 77 10
a 77 65 10
a 65 66 6
a 66 65 6
a 66 78 10
a 78 66 10
a 66 67 9
a 67 66 9
a 67 79 4
a 79 67 4
a 67 68 5
a 68 67 5
a 68 80 10
a 80 68 10
a 68 69 9
a 69 68 9
a 69 81 6
a 81 69 6
a 69 70 3
a 70 69 3
a 70 82 4
a 82 70 4
a 70 71 1
a 71 70 1
a 71 83 9
a 83 71 9
a 71 72 2
a 72 71 2
a 72 84 10
a 84 72 10
a 73 85 6
a 85 73 6
a 73 74 7
a 74 73 7
a 74 86 5
a 86 74 5
a 74 75 2
a 75 74 2
a 75 87 9
a 87 75 9
a 75 76 1
a 76 75 1
a 76 88 9
a 88 76 9
a 76 77 10
a 77 76 10
a 77 89 5
a 89 77 5
a 77 78 1
a 78 77 1
a 78 90 7
a 90 78 7
a 78 79 4
a 79 78 4
a 79 91 1
a 91 79 1
a 79 80 3
a 80 79 3
a 80 92 8
a 92 80 8
a 80 81 4
a 81 80 4
a 81 93 6
a 93 81 6
a 81 82 4
a 82 81 4
a 82 94 1
a 94 82 1
a 82 83 4
a 83 82 4
a 83 95 3
a 95 83 3
a 83 84 3
a 84 83 3
a 84 96 9
a 96 84 9
a 85 97 4
a 97 85 4
a 85 86 4
a 86 85 4
a 86 98 7
a 98 86 7
a 86 87 3
a 87 86 3
a 87 99 2
a 99 87 2
a 87 88 10
a 88 87 10
a 88 100 1
a 100 88 1
a 88 89 1
a 89 88 1
a 89 101 9
a 101 89 9
a 89 90 1
a 90 89 1
a 90 102 9
a 102 90 9
a 90 91 8
a 91 90 8
a 91 103 9
a 103 91 9
a 91 92 7
a 92 91 7
a 92 104 5
a 104 92 5
a 92 93 7
a 93 92 7
a 93 105 9
a 105 93 9
a 93 94 8
a 94 93 8
a 94 106 9
a 106 94 9
a 94 95 1
a 95 94 1
a 95 107 3
a 107 95 3
a 95 96 8
a 96 95 8
a 96 108 6
a 108 96 6
a 97 109 4
a 109 97 4
a 97 98 3
a 98 97 3
a 98 110 9
a 110 98 9
a 98 99 8
a 99 98 8
a 99 111 5
a 111 99 5
a 99 100 6
a 100 99 6
a 100 112 6
a 112 100 6
a 100 101 2
a 101 100 2
a 101 113 5
a 113 101 5
a 101 102 9
a 102 101 9
a 102 114 2
a 114 102 2
a 102 103 10
a 103 102 10
a 103 115 9
a 115 103 9
a 103 104 6
a 104 103 6
a 104 116 3
a 116 104 3
a 104 105 4
a 105 104 4
a 105 117 10
a 117 105 10
a 105 106 10
a 106 105 10
a 106 118 2
a 118 106 2
a 106 107 5
a 107 106 5
a 107 119 9
a 119 107 9
a 107 108 10
a 108 107 10
a 108 120 7
a 120 108 7
a 109 121 8
a 121 109 8
a 109 110 6
a 110 109 6
a 110 122 6
a 122 110 6
a 110 111 9
a 111 110 9
a 111 123 10
a 123 111 10
a 111 112 6
a 112 111 6
a 112 124 9
a 124 112 9
a 112 113 3
a 113 112 3
a 113 125 4
a 125 113 4
a 113 114 3
a 114 113 3
a 114 126 8
a 126 114 8
a 114 115 1
a 115 114 1
a 115 127 9
a 127 115 9
a 115 116 10
a 116 115 10
a 116 128 8
a 128 116 8
a 116 117 1
a 117 116 1
a 117 129 3
a 129 117 3
a 117 118 8
a 118 117 8
a 118 130 10
a 130 118 10
a 118 119 4
a 119 118 4
a 119 131 4
a 131 119 4
a 119 120 2
a 120 119 2
a 120 132 9
a 132 120 9
a 121 133 8
a 133 121 8
a 121 122 8
a 122 121 8
a 122 134 7
a 134 122 7
a 122 123 7
a 123 122 7
a 123 135 7
a 135 123 7
a 123 124 5
a 124 123 5
a 124 136 1
a 136 124 1
a 124 125 6
a 125 124 6
a 125 137 4
a 137 125 4
a 125 126 4
a 126 125 4
a 126 138 4
a 138 126 4
a 126 127 6
a 127 126 6
a 127 139 9
a 139 127 9
a 127 128 2
a 128 127 2
a 128 140 3
a 140 128 3
a 128 129 5
a 129 128 5
a 129 141 8
a 141 129 8
a 129 130 9
a 130 129 9
a 130 142 7
a 142 130 7
a 130 131 10
a 131 130 10
a 131 143 9
a 143 131 9
a 131 132 5
a 132 131 5
a 132 144 6
a 144 132 6
a 133 134 3
a 134 133 3
a 134 135 5
a 135 134 5
a 135 136 4
a 136 135 4
a 136 137 9
a 137 136 9
a 137 138 5
a 138 137 5
a 138 139 3
a 139 138 3
a 139 140 4
a 140 139 4
a 140 141 3
a 141 140 3
a 141 142 8
a 142 141 8
a 142 143 1
a 143 142 1
a 143 144 1
a 144 143 1
